11 16 18 5 15 4 13 12 8 10 2 3 6 17 9 7 14 19 1 0  
11 16 18 5 15 4 13 12 8 10 2 3 6 17 9 1 14 19 7 0  
11 16 18 5 4 15 13 12 6 17 3 8 9 1 2 7 14 19 0 10  
11 16 13 18 5 15 4 12 14 17 2 3 6 10 0 19 1 8 9 7  
11 16 18 5 4 15 13 12 6 17 3 8 9 1 2 7 14 19 10 0  
11 16 18 5 4 15 13 12 7 3 17 6 8 9 1 2 14 19 0 10  
11 16 18 5 4 15 13 12 6 17 3 8 9 1 2 7 14 19 10 0  
11 16 13 18 5 15 4 12 14 17 2 3 6 0 10 19 1 8 9 7  
11 16 18 5 15 4 13 12 8 1 2 0 17 3 6 14 10 19 9 7  
11 16 18 5 15 4 13 12 8 17 2 3 6 9 10 7 14 19 1 0  
11 16 18 5 4 15 13 12 7 3 17 6 8 9 1 2 14 19 0 10  
11 16 18 5 4 15 13 12 6 17 3 8 9 1 2 7 14 19 10 0  
11 16 18 5 4 15 13 12 7 3 17 6 8 9 1 2 14 19 0 10  
11 16 18 5 15 4 13 12 8 1 2 0 17 3 6 14 10 19 9 7  
11 16 18 5 4 15 13 12 7 3 17 6 8 9 1 2 14 19 0 10  
11 16 18 5 4 15 13 12 7 17 3 8 9 2 1 6 14 19 10 0  
11 16 13 18 5 15 4 12 14 17 2 3 6 10 0 1 8 19 9 7  
11 16 18 5 15 4 13 12 8 10 2 3 6 17 9 1 14 19 7 0  
11 16 18 5 15 4 13 12 8 10 2 3 6 17 9 1 14 19 7 0  
11 16 18 5 4 15 13 12 6 17 3 8 9 1 2 7 14 19 0 10  
11 16 13 18 5 15 4 12 14 17 2 3 6 10 0 19 1 9 7 8  
11 16 18 5 4 15 13 12 6 17 3 8 9 1 2 7 14 19 10 0  
11 16 18 5 4 15 13 12 7 3 17 6 8 9 1 2 14 19 0 10  
